(declare-const |K:36| Int)
(declare-fun pow (Real Real) Real)
(declare-const |y':31| Int)
(declare-const |x':30| Int)
(assert (and (or (not (<= (- |K:36|) 0)) (= (+ (- (pow 2 |K:36|)) |y':31|) 0))
               (or (not (<= (- |K:36|) 0)) (= (+ |x':30| (- |K:36|)) 0))
               (or (not (<= (- |K:36|) 0)) (<= (+ (- |y':31|) |K:36| 1) 0))
               (or (and (= |K:36| 0) (= (+ (- |y':31|) 1) 0)
                          (= (- |x':30|) 0))
                     (and (<= (+ (- |K:36|) 1) 0) (<= (+ |x':30| -6) 0)
                            (<= (+ (- |y':31|) 2) 0) (<= (+ (- |x':30|) 1) 0)))
               (<= (- |K:36|) 0) (< (- |y':31|) 0) (<= (- |x':30|) 0)
               (<= (+ (- |x':30|) 6) 0)
               (not (or (< (+ |y':31| -64) 0) (< (+ (- |y':31|) 64) 0)))))
(check-sat)
